Route #1: 48 21 61 4 29 36 27 70 66
Route #2: 68 18 5 55 51 34 57 10 16 42 56 47
Route #3: 41 11 53 69 31 79 30 35 49 25 24 60 28 13 45 75 32 6 63
Route #4: 22 15 12 3 38 7
Route #5: 37 74 54 65 26 58 17 44 9 62 20 76
Route #6: 1 71 73 39 33 23 46 77 59
Route #7: 14 52 40 78 2 8 64 19 80 72
Route #8: 50 43 67
Route #9: 
Route #10: 
cost 2973.791301892079
